problem_set_name: A-n54-k7, time: 44.327026000000004 seconds, generations: 50000, cxpb: 0.85, mutpb: 0.15, cx_algorithm: order_xo, mut_algorithm: inversion_mut, 
Route #1: 35 42 52 43 25 48 47 44
Route #2: 29 6 19 51 50 8 40 36 21 24 5
Route #3: 30 37 2 34 22 11 16
Route #4: 15 28 3 20 9 38 33 53
Route #5: 17 39 13 49 41 26
Route #6: 32 23 45 10 46 18
Route #7: 31 7 14 4 54 12 27
Cost 1514